p cnf 52 110
-1 -2 3 0
-4 -2 3 0
-5 -2 6 0
-7 -2 6 0
-8 -9 3 0
-10 -9 3 0
-11 -9 6 0
-12 -9 6 0
-1 -13 -2 0
-4 -13 -2 0
-5 -14 -2 0
-7 -14 -2 0
-8 -13 -9 0
-10 -13 -9 0
-11 -14 -9 0
-12 -14 -9 0
-1 -13 -15 0
-4 -13 -15 0
-5 -14 -16 0
-7 -14 -16 0
-8 -13 -15 0
-10 -13 -15 0
-11 -14 -16 0
-12 -14 -16 0
-1 -13 -17 0
-4 -13 -17 0
-5 -14 -18 0
-7 -14 -18 0
-8 -13 -17 0
-10 -13 -17 0
-11 -14 -18 0
-12 -14 -18 0
-19 3 0
-20 6 0
-19 14 0
-20 13 0
-19 21 0
-20 22 0
-19 16 0
-20 15 0
-1 -2 -23 24 20 0
-4 -2 -25 24 20 0
-5 -2 -26 27 19 0
-7 -2 -28 27 19 0
-8 -9 -29 24 20 0
-10 -9 -30 24 20 0
-11 -9 -31 27 19 0
-12 -9 -32 27 19 0
-27 14 0
-24 13 0
-27 6 0
-24 3 0
-27 -17 0
-24 -18 0
-33 -33 -13 13 3 0
-33 -34 -13 14 6 0
-34 -33 -14 13 3 0
-34 -34 -14 14 6 0
-35 -35 -13 13 3 0
-35 -36 -13 14 6 0
-36 -35 -14 13 3 0
-36 -36 -14 14 6 0
-33 -34 -13 14 27 19 0
-34 -33 -14 13 24 20 0
-35 -36 -13 14 27 19 0
-36 -35 -14 13 24 20 0
-3 -13 0
-3 -14 0
-6 -13 0
-6 -14 0
-13 -27 19 0
-14 -24 20 0
-3 -21 1 0
-3 -21 4 0
-6 -22 5 0
-6 -22 7 0
-3 -21 8 0
-3 -21 10 0
-6 -22 11 0
-6 -22 12 0
-37 -17 0
-38 -18 0
-37 -39 0
-38 -40 0
-39 -15 0
-40 -16 0
-3 21 41 42 43 44 0
-6 22 45 46 47 48 0
-44 -24 0
-48 -27 0
-3 -21 24 20 0
-6 -22 27 19 0
-13 17 26 0
-13 17 28 0
-14 18 23 0
-14 18 25 0
-13 17 31 0
-13 17 32 0
-14 18 29 0
-14 18 30 0
-19 -44 0
-20 -48 0
-49 0
-50 0
-51 0
-52 0
13 3 0
14 6 0
-13 -3 0
-14 -6 0
%
